c 1 2 3 4 5 6 7 70 8 71 9 75 44 19 45 20 46 21 47 22 48 23 49 24 50 25 51 26 52 27 10 11 12 13 14 15 16 17 18 28 29 30 31 32 33 34 35 36 37 38 39 40 41 42 43 53 54 55 56 57 58 59 60 61 62 63 64 65 66 67 68 69 72 73 74 76 
p wcnf 191 76 16
16 -1 10 
16 -2 11 
16 -3 12 
16 -4 13 
16 -5 14 
16 -6 15 
16 -7 16 
16 -8 17 
16 -9 18 
16 -19 1 
16 -20 1 
16 -21 1 
16 -22 1 
16 -23 1 
16 -24 1 
16 -25 1 
16 -26 1 
16 -27 1 
16 -19 28 
16 -19 29 
16 -19 30 
16 -19 31 
16 -19 32 
16 -19 33 
16 -19 34 
16 -19 35 
16 -20 29 
16 -20 30 
16 -20 31 
16 -20 32 
16 -20 33 
16 -20 34 
16 -20 35 
16 -20 36 
16 -21 30 
16 -21 31 
16 -21 32 
16 -21 33 
16 -21 34 
16 -21 35 
16 -21 36 
16 -21 37 
16 -22 31 
16 -22 32 
16 -22 33 
16 -22 34 
16 -22 35 
16 -22 36 
16 -22 37 
16 -22 38 
16 -23 32 
16 -23 33 
16 -23 34 
16 -23 35 
16 -23 36 
16 -23 37 
16 -23 38 
16 -23 39 
16 -24 33 
16 -24 34 
16 -24 35 
16 -24 36 
16 -24 37 
16 -24 38 
16 -24 39 
16 -24 40 
16 -25 34 
16 -25 35 
16 -25 36 
16 -25 37 
16 -25 38 
16 -25 39 
16 -25 40 
16 -25 41 
16 -26 35 
16 -26 36 
16 -26 37 
16 -26 38 
16 -26 39 
16 -26 40 
16 -26 41 
16 -26 42 
16 -27 36 
16 -27 37 
16 -27 38 
16 -27 39 
16 -27 40 
16 -27 41 
16 -27 42 
16 -27 43 
16 -44 1 
16 -45 1 
16 -46 1 
16 -47 1 
16 -48 1 
16 -49 1 
16 -50 1 
16 -51 1 
16 -52 1 
16 -44 53 
16 -44 54 
16 -44 55 
16 -44 56 
16 -44 57 
16 -44 58 
16 -44 59 
16 -44 60 
16 -44 61 
16 -45 54 
16 -45 55 
16 -45 56 
16 -45 57 
16 -45 58 
16 -45 59 
16 -45 60 
16 -45 61 
16 -45 62 
16 -46 55 
16 -46 56 
16 -46 57 
16 -46 58 
16 -46 59 
16 -46 60 
16 -46 61 
16 -46 62 
16 -46 63 
16 -47 56 
16 -47 57 
16 -47 58 
16 -47 59 
16 -47 60 
16 -47 61 
16 -47 62 
16 -47 63 
16 -47 64 
16 -48 57 
16 -48 58 
16 -48 59 
16 -48 60 
16 -48 61 
16 -48 62 
16 -48 63 
16 -48 64 
16 -48 65 
16 -49 58 
16 -49 59 
16 -49 60 
16 -49 61 
16 -49 62 
16 -49 63 
16 -49 64 
16 -49 65 
16 -49 66 
16 -50 59 
16 -50 60 
16 -50 61 
16 -50 62 
16 -50 63 
16 -50 64 
16 -50 65 
16 -50 66 
16 -50 67 
16 -51 60 
16 -51 61 
16 -51 62 
16 -51 63 
16 -51 64 
16 -51 65 
16 -51 66 
16 -51 67 
16 -51 68 
16 -52 61 
16 -52 62 
16 -52 63 
16 -52 64 
16 -52 65 
16 -52 66 
16 -52 67 
16 -52 68 
16 -52 69 
16 -70 19 
16 -71 19 
16 -70 72 
16 -70 73 
16 -71 73 
16 -71 74 
16 -75 44 70 
16 -75 76 
16 19 20 21 22 23 24 25 26 27 44 45 46 47 48 49 50 51 52 
16 19 20 21 22 23 24 25 26 27 44 45 46 47 48 49 50 51 52 70 71 
8 75 
